min: 1 x1 + 1 x2 + 1 x3 + 1 x4 + 1 x5 + 1 x6 + 1 x7 + 1 x8 + 1 x9 + 1 x10 + 1 x11 + 1 x12 + 1 x13 + 1 x14 + 1 x15;

x15 >= 1;
x4 + x6 + x3 >= 1;
x4 + x15 + x10 >= 1;
x4 + x15 >= 1;
x15 + x4 + x3 >= 1;
x12 + x7 >= 1;
x8 + x11 + x12 + x6 + x7 >= 1;
x10 + x9 + x6 + x5 + x1 + x11 >= 1;
x12 + x11 + x3 >= 1;
x3 + x7 + x2 + x8 >= 1;
x7 + x5 + x4 + x14 + x13 + x11 >= 1;
x11 + x5 + x8 + x10 >= 1;
x14 + x13 + x10 >= 1;
x12 + x2 >= 1;
x11 + x7 + x1 >= 1;
x10 + x13 + x1 + x2 + x11 + x8 >= 1;
x3 + x2 + x6 + x7 >= 1;
x5 + x14 + x9 + x12 + x15 + x1 >= 1;
x13 + x6 + x4 + x2 + x3 >= 1;
x12 + x6 >= 1;
x10 + x8 + x14 >= 1;
x8 + x6 + x11 + x10 + x9 + x4 >= 1;
x8 + x14 >= 1;
x5 >= 1;
x4 + x11 + x12 + x6 + x10 + x13 >= 1;
x7 + x13 + x9 >= 1;
x12 + x1 + x11 + x4 >= 1;
x2 + x4 + x5 >= 1;
x15 + x12 + x2 + x1 + x8 + x6 >= 1;
x5 + x10 + x9 + x8 + x11 + x12 >= 1;
x11 + x2 >= 1;
x12 + x11 + x1 + x2 + x8 >= 1;
x13 + x12 + x9 >= 1;
x9 + x3 + x15 >= 1;
x7 + x15 + x11 + x14 + x12 >= 1;
x4 >= 1;
x11 + x5 + x7 + x14 + x1 >= 1;
x3 >= 1;
x14 >= 1;
x2 + x14 + x6 + x12 + x5 + x15 >= 1;
x7 + x1 + x11 + x14 + x13 >= 1;
x8 + x9 + x15 + x3 + x2 >= 1;
x14 >= 1;
x2 + x15 + x12 + x13 >= 1;
x11 + x1 >= 1;
x1 + x8 >= 1;
x6 >= 1;
x12 + x8 + x7 + x3 + x14 >= 1;
x15 >= 1;
x6 + x9 + x5 + x11 >= 1;

bin x1, x2, x3, x4, x5, x6, x7, x8, x9, x10, x11, x12, x13, x14, x15;
